Maximize
  21 x0 + 32 x1 - 40 x2 - 12 x3 + 5 x4 + 36 x5 - 36 x6 + 22 x7 + 9 x8
   + 11 x9 - 13 x10 + 42 x11 + 22 x12 + 17 x13 - 28 x14 + 32 x15 + 0 x16
   + x17 - 42 x18 - 6 x19 + 37 x20 + 18 x21 - 31 x22 + 8 x23 + 45 x24 + x25
   + 47 x26 - 14 x27 - 21 x28 + 34 x29 + 37 x30 - 30 x31 + 22 x32 + 9 x33
   + 40 x34 - 35 x35 + 27 x36 + 19 x37 + 30 x38 - 5 x39 - 27 x40 - 22 x41
   - 20 x42 + 34 x43 + 4 x44 + 6 x45 - 22 x46 + 34 x47 + 21 x48 + 38 x49
   - 37 x50 + 35 x51 - 45 x52 + 38 x53 - 26 x54 + 39 x55 - 12 x56 + 35 x57
   + 4 x58 + 6 x59 + 49 x60 + 47 x61 - 39 x62 - 14 x63 - 25 x64 - 5 x65
   - 38 x66 + x67 + 37 x68 - 15 x69 - 35 x70 - 19 x71 + 25 x72 - 41 x73
   + 24 x74 + 12 x75 + 24 x76 - 50 x77 + 22 x78 - 18 x79 + 13 x80 - 45 x81
   + 6 x82 + 45 x83 - 18 x84 + 2 x85 - 9 x86 + 7 x87 - 44 x88 - 14 x89
   + 2 x90 - 42 x91 - 3 x92 + 27 x93 - 6 x94 - 11 x95 - 23 x96 - 45 x97
   + 26 x98 - x99 - 34 x100 - 44 x101 + 26 x102 + 9 x103 + 6 x104 - 30 x105
   + 10 x106 + 44 x107 + 23 x108 + 9 x109 + 37 x110 + 50 x111 + 37 x112
   - 32 x113 + 20 x114 - 21 x115 - 44 x116 - 40 x117 + 27 x118 + 27 x119
   - 19 x120 + 24 x121 + 32 x122 - 27 x123 - 44 x124 + [ - 82 x0 * x2
   + 34 x0 * x4 + 76 x0 * x6 - 18 x0 * x9 + 62 x0 * x14 + 16 x0 * x15
   + 30 x0 * x23 + 56 x0 * x26 + 14 x0 * x28 + 50 x0 * x30 + 30 x0 * x31
   + 72 x0 * x32 + 50 x0 * x37 - 60 x0 * x44 + 44 x0 * x51 - 66 x0 * x57
   - 20 x0 * x58 - 28 x0 * x63 - 24 x0 * x65 + 88 x0 * x66 + 28 x0 * x68
   - 20 x0 * x82 + 88 x0 * x94 - 22 x0 * x95 + 92 x0 * x106 - 38 x0 * x107
   - 62 x0 * x110 + 10 x0 * x112 - 72 x0 * x115 - 22 x0 * x117
   - 76 x0 * x119 - 20 x1 ^2 - 32 x1 * x2 - 16 x1 * x6 + 50 x1 * x7
   + 62 x1 * x18 + 58 x1 * x19 - 26 x1 * x24 - 48 x1 * x25 + 24 x1 * x26
   - 16 x1 * x38 + 34 x1 * x39 + 96 x1 * x42 + 54 x1 * x46 - 50 x1 * x56
   - 72 x1 * x57 - 58 x1 * x62 + 70 x1 * x63 - 94 x1 * x65 + 94 x1 * x67
   - 40 x1 * x71 - 88 x1 * x72 - 86 x1 * x73 - 34 x1 * x75 - 22 x1 * x84
   - 58 x1 * x96 + 66 x1 * x102 - 6 x1 * x103 - 92 x1 * x104 - 86 x1 * x105
   + 22 x1 * x110 + 54 x1 * x112 - 74 x1 * x113 + 58 x1 * x114
   - 100 x1 * x115 + 64 x1 * x120 + 40 x1 * x121 - 24 x1 * x123
   - 82 x1 * x124 - 98 x2 * x8 + 86 x2 * x10 - 26 x2 * x16 - 50 x2 * x22
   - 14 x2 * x25 + 8 x2 * x26 + 44 x2 * x27 - 54 x2 * x28 + 20 x2 * x31
   - 6 x2 * x33 + 86 x2 * x34 - 8 x2 * x36 - 42 x2 * x38 - 82 x2 * x39
   - 52 x2 * x49 + 88 x2 * x52 + 74 x2 * x56 + 22 x2 * x61 - 62 x2 * x66
   + 14 x2 * x67 - 84 x2 * x68 + 92 x2 * x70 + 92 x2 * x71 + 38 x2 * x75
   - 40 x2 * x76 + 98 x2 * x79 - 46 x2 * x84 + 46 x2 * x87 - 26 x2 * x88
   - 88 x2 * x90 - 84 x2 * x94 - 92 x2 * x99 - 26 x2 * x101 - 78 x2 * x112
   + 98 x2 * x113 + 38 x2 * x115 + 54 x2 * x123 + 38 x3 ^2 - 60 x3 * x4
   + 8 x3 * x9 - 96 x3 * x13 - 2 x3 * x15 - 16 x3 * x19 + 28 x3 * x25
   + 92 x3 * x26 - 32 x3 * x29 - 54 x3 * x40 - 56 x3 * x41 - 46 x3 * x46
   - 64 x3 * x47 + 14 x3 * x54 - 56 x3 * x57 - 20 x3 * x58 - 18 x3 * x63
   + 76 x3 * x65 + 44 x3 * x69 - 72 x3 * x74 + 6 x3 * x77 + 60 x3 * x80
   - 74 x3 * x85 + 60 x3 * x93 + 84 x3 * x97 + 76 x3 * x99 - 60 x3 * x102
   + 42 x3 * x104 + 28 x3 * x106 + 6 x3 * x109 - 80 x3 * x113
   + 10 x3 * x116 + 86 x3 * x120 - 54 x3 * x121 - 48 x4 * x8 - 96 x4 * x13
   + 52 x4 * x16 + 54 x4 * x23 + 4 x4 * x27 - 24 x4 * x39 - 16 x4 * x40
   + 8 x4 * x45 - 84 x4 * x49 + 36 x4 * x57 - 44 x4 * x64 - 64 x4 * x65
   + 42 x4 * x69 - 50 x4 * x70 + 58 x4 * x71 - 20 x4 * x81 - 10 x4 * x86
   + 34 x4 * x93 - 72 x4 * x94 - 12 x4 * x104 + 14 x4 * x111 + 48 x4 * x114
   - 98 x4 * x117 - 47 x5 ^2 + 90 x5 * x11 + 72 x5 * x13 - 88 x5 * x14
   - 48 x5 * x16 - 12 x5 * x24 - 32 x5 * x36 + 30 x5 * x37 + 34 x5 * x38
   - 74 x5 * x41 - 4 x5 * x42 + 76 x5 * x43 + 24 x5 * x52 + 70 x5 * x54
   - 18 x5 * x57 - 44 x5 * x61 - 64 x5 * x63 + 56 x5 * x69 - 82 x5 * x73
   - 80 x5 * x76 + 48 x5 * x83 + 50 x5 * x94 - 56 x5 * x96 - 2 x5 * x102
   - 84 x5 * x109 + 34 x5 * x110 - 42 x5 * x113 - 50 x5 * x124 - 10 x6 * x7
   + 14 x6 * x8 + 86 x6 * x12 - 92 x6 * x14 - 98 x6 * x15 + 96 x6 * x19
   - 80 x6 * x22 + 14 x6 * x28 + 54 x6 * x30 - 6 x6 * x40 + 70 x6 * x41
   + 70 x6 * x43 + 10 x6 * x46 + 38 x6 * x49 + 62 x6 * x52 - 24 x6 * x57
   - 10 x6 * x61 + 94 x6 * x62 + 16 x6 * x67 - 80 x6 * x70 - 68 x6 * x73
   - 22 x6 * x74 - 100 x6 * x80 + 2 x6 * x84 - 78 x6 * x97 + 34 x6 * x99
   + 62 x6 * x102 - 38 x6 * x103 + 12 x6 * x106 - 74 x6 * x110
   - 12 x6 * x111 - 82 x6 * x112 + 60 x6 * x116 + 18 x6 * x120 + 18 x7 * x8
   - 56 x7 * x14 - 2 x7 * x15 + 28 x7 * x16 - 70 x7 * x26 - 38 x7 * x29
   + 88 x7 * x32 - 14 x7 * x37 + 76 x7 * x39 + 56 x7 * x40 - 98 x7 * x49
   - 4 x7 * x50 + 98 x7 * x55 - 80 x7 * x62 + 4 x7 * x64 - 18 x7 * x66
   - 28 x7 * x67 + 46 x7 * x69 + 54 x7 * x70 - 44 x7 * x75 - 30 x7 * x79
   + 68 x7 * x82 - 62 x7 * x84 + 10 x7 * x92 + 4 x7 * x93 + 76 x7 * x94
   - 68 x7 * x102 + 84 x7 * x104 - 12 x7 * x107 - 8 x7 * x113
   - 60 x7 * x116 - 84 x7 * x117 + 76 x7 * x120 + 82 x7 * x122
   - 24 x8 * x21 - 50 x8 * x24 + 24 x8 * x26 - 84 x8 * x38 + 72 x8 * x47
   - 72 x8 * x54 + 82 x8 * x55 + 66 x8 * x56 + 62 x8 * x62 + 94 x8 * x65
   + 84 x8 * x66 - 8 x8 * x79 + 32 x8 * x81 + 78 x8 * x82 - 58 x8 * x85
   + 6 x8 * x87 + 98 x8 * x89 + 12 x8 * x101 + 100 x8 * x102 + 34 x8 * x107
   + 84 x8 * x111 - 12 x8 * x115 - 90 x8 * x116 - 8 x8 * x121 - 36 x9 ^2
   + 82 x9 * x11 - 74 x9 * x12 - 44 x9 * x13 + 98 x9 * x21 + 24 x9 * x22
   - 2 x9 * x40 + 28 x9 * x43 + 90 x9 * x56 - 22 x9 * x59 + 66 x9 * x60
   + 8 x9 * x68 - 26 x9 * x71 + 66 x9 * x74 - 90 x9 * x76 - 4 x9 * x77
   - 18 x9 * x78 - 88 x9 * x79 + 12 x9 * x84 + 24 x9 * x89 - 56 x9 * x91
   + 60 x9 * x92 - 78 x9 * x97 - 16 x9 * x104 - 84 x9 * x107 + 30 x9 * x109
   + 30 x9 * x112 - 64 x9 * x113 - 10 x9 * x116 + 12 x9 * x118
   - 62 x9 * x120 - 76 x9 * x122 - 86 x10 * x14 + 62 x10 * x21
   - 58 x10 * x30 - 14 x10 * x33 + 94 x10 * x34 + 18 x10 * x35
   + 92 x10 * x40 - 46 x10 * x46 + 88 x10 * x48 + 72 x10 * x50
   + 88 x10 * x51 - 26 x10 * x54 + 56 x10 * x57 + 42 x10 * x63
   + 60 x10 * x67 + 88 x10 * x69 + 66 x10 * x78 + 84 x10 * x85
   + 4 x10 * x89 + 2 x10 * x92 + 58 x10 * x94 + 10 x10 * x99 + 8 x10 * x101
   - 50 x10 * x102 - 80 x10 * x110 - 88 x10 * x113 - 78 x10 * x115
   - 76 x10 * x118 + 12 x11 ^2 + 48 x11 * x16 - 14 x11 * x20 - 96 x11 * x29
   - 72 x11 * x30 + 68 x11 * x31 + 2 x11 * x36 + 54 x11 * x38
   - 90 x11 * x47 - 16 x11 * x57 - 68 x11 * x62 + 54 x11 * x68
   - 34 x11 * x71 + 16 x11 * x76 + 48 x11 * x85 + 10 x11 * x86
   + 100 x11 * x87 + 56 x11 * x89 + 82 x11 * x98 + 20 x11 * x100
   - 74 x11 * x104 - 14 x11 * x108 - 80 x11 * x109 - 16 x11 * x112
   - 88 x11 * x113 + 18 x11 * x114 + 100 x11 * x116 + 58 x11 * x119
   - 10 x11 * x121 + 18 x11 * x123 - 40 x11 * x124 + 26 x12 ^2
   + 50 x12 * x22 + 2 x12 * x24 - 86 x12 * x25 + 16 x12 * x27
   - 22 x12 * x31 - 72 x12 * x34 - 38 x12 * x47 + 60 x12 * x49
   + 8 x12 * x53 + 98 x12 * x54 - 14 x12 * x55 - 62 x12 * x58
   + 46 x12 * x59 - 52 x12 * x63 - 36 x12 * x66 - 50 x12 * x75
   + 82 x12 * x82 - 64 x12 * x83 - 96 x12 * x95 + 8 x12 * x99
   + 28 x12 * x101 + 64 x12 * x111 - 54 x12 * x115 - 56 x12 * x119
   + 56 x12 * x124 + 30 x13 ^2 - 50 x13 * x14 - 76 x13 * x17 + 4 x13 * x22
   + 60 x13 * x24 - 88 x13 * x25 - 82 x13 * x28 - 78 x13 * x30
   + 44 x13 * x34 - 98 x13 * x38 + 50 x13 * x41 + 52 x13 * x42
   - 42 x13 * x47 + 88 x13 * x48 - 84 x13 * x50 + 66 x13 * x51
   + 8 x13 * x54 + 76 x13 * x60 - 74 x13 * x64 + 58 x13 * x66
   + 78 x13 * x70 + 76 x13 * x78 + 60 x13 * x83 + 22 x13 * x84
   - 72 x13 * x88 - 68 x13 * x95 + 62 x13 * x97 + 56 x13 * x101
   - 100 x13 * x102 - 26 x13 * x103 + 86 x13 * x106 + 4 x13 * x109
   - 8 x13 * x110 + 10 x13 * x112 + 12 x13 * x116 - 50 x13 * x123
   + 2 x14 * x17 + 18 x14 * x18 - 6 x14 * x21 - 10 x14 * x28 + 34 x14 * x29
   + 82 x14 * x31 + 26 x14 * x51 + 20 x14 * x58 + 40 x14 * x60
   - 84 x14 * x73 + 48 x14 * x79 + 58 x14 * x83 - 92 x14 * x89
   + 76 x14 * x95 + 6 x14 * x96 + 28 x14 * x97 + 58 x14 * x99
   + 38 x14 * x103 - 22 x14 * x105 - 12 x14 * x106 + 80 x14 * x110
   + 100 x14 * x120 - 68 x14 * x124 - 54 x15 * x16 + 90 x15 * x17
   - 36 x15 * x22 + 82 x15 * x23 + 18 x15 * x24 - 96 x15 * x25
   - 66 x15 * x26 - 14 x15 * x43 - 10 x15 * x45 - 6 x15 * x54
   - 72 x15 * x59 - 56 x15 * x66 + 98 x15 * x73 - 12 x15 * x75
   - 60 x15 * x77 - 66 x15 * x79 - 20 x15 * x81 - 50 x15 * x83
   + 96 x15 * x89 - 8 x15 * x96 + 38 x15 * x97 - 84 x15 * x102
   - 74 x15 * x105 - 60 x15 * x109 + 18 x16 * x21 + 64 x16 * x26
   - 54 x16 * x30 - 6 x16 * x36 + 84 x16 * x37 + 52 x16 * x41
   - 66 x16 * x42 - 6 x16 * x57 - 68 x16 * x63 - 18 x16 * x64
   + 22 x16 * x75 + 40 x16 * x77 - 52 x16 * x78 - 70 x16 * x79
   + 60 x16 * x95 + 78 x16 * x96 - 30 x16 * x97 - 82 x16 * x98
   + 18 x16 * x99 - 36 x16 * x104 + 88 x16 * x106 + 22 x16 * x111
   + 58 x16 * x112 - 84 x16 * x116 - 22 x16 * x118 + 80 x16 * x119
   + 82 x16 * x123 - 33 x17 ^2 - 48 x17 * x26 - 26 x17 * x27 + 96 x17 * x28
   + 84 x17 * x30 + 14 x17 * x33 - 98 x17 * x35 + 92 x17 * x37
   - 70 x17 * x38 + 90 x17 * x40 - 34 x17 * x41 - 78 x17 * x44
   + 86 x17 * x45 + 30 x17 * x50 + 98 x17 * x52 + 2 x17 * x56
   + 34 x17 * x59 - 54 x17 * x62 + 94 x17 * x70 + 38 x17 * x74
   + 42 x17 * x75 + 50 x17 * x76 + 50 x17 * x78 - 28 x17 * x84
   - 22 x17 * x92 + 54 x17 * x94 - 44 x17 * x97 - 52 x17 * x98
   - 70 x17 * x103 - 80 x17 * x104 - 38 x17 * x105 - 56 x17 * x106
   + 36 x17 * x107 + 66 x17 * x109 + 22 x17 * x115 + 34 x17 * x118
   - 84 x17 * x120 - 60 x18 * x31 - 78 x18 * x38 - 86 x18 * x46
   - 12 x18 * x48 - 38 x18 * x50 - 94 x18 * x61 + 58 x18 * x64
   - 96 x18 * x67 - 86 x18 * x68 + 12 x18 * x74 + 66 x18 * x75
   + 78 x18 * x78 - 78 x18 * x91 + 68 x18 * x92 - 8 x18 * x97
   - 34 x18 * x103 - 18 x18 * x106 + 60 x18 * x107 + 100 x18 * x109
   - 34 x18 * x114 - 80 x18 * x117 + 100 x18 * x118 + 78 x18 * x120
   + 68 x18 * x121 - 4 x19 * x29 + 2 x19 * x31 + 56 x19 * x32
   + 74 x19 * x40 - 98 x19 * x46 + 90 x19 * x48 + 70 x19 * x57
   - 100 x19 * x58 - 4 x19 * x61 + 54 x19 * x70 - 66 x19 * x71
   - 30 x19 * x75 + 20 x19 * x80 - 94 x19 * x86 + 18 x19 * x88
   + 58 x19 * x90 + 72 x19 * x92 - 38 x19 * x95 + 82 x19 * x104
   + 98 x19 * x107 - 90 x19 * x120 + 74 x19 * x124 + 70 x20 * x33
   + 28 x20 * x36 + 52 x20 * x47 - 8 x20 * x55 + 26 x20 * x61
   - 62 x20 * x72 - 28 x20 * x73 + 62 x20 * x75 + 8 x20 * x87
   - 54 x20 * x95 + 16 x20 * x96 - 68 x20 * x103 + 80 x20 * x104
   + 10 x20 * x114 + 50 x20 * x115 - 42 x20 * x117 - 86 x20 * x118
   - 100 x20 * x121 + 82 x20 * x122 - 80 x20 * x123 - 31 x21 ^2
   - 76 x21 * x32 + 4 x21 * x37 - 86 x21 * x43 + 24 x21 * x44
   + 70 x21 * x46 - 74 x21 * x51 - 50 x21 * x61 - 72 x21 * x63
   - 34 x21 * x66 + 24 x21 * x78 + 52 x21 * x82 - 96 x21 * x83
   - 70 x21 * x90 + 96 x21 * x99 + 10 x21 * x100 + 6 x21 * x101
   - 90 x21 * x109 + 28 x21 * x110 - 56 x21 * x117 - 38 x21 * x118
   + 16 x21 * x119 + 76 x21 * x123 - 30 x22 * x23 - 84 x22 * x27
   + 58 x22 * x31 - 40 x22 * x32 - 36 x22 * x34 - 32 x22 * x35
   + 14 x22 * x37 - 66 x22 * x51 + 84 x22 * x52 - 24 x22 * x53
   - 88 x22 * x56 + 8 x22 * x63 - 84 x22 * x68 + 78 x22 * x73 - 2 x22 * x76
   - 58 x22 * x78 - 84 x22 * x79 + 82 x22 * x80 + 100 x22 * x81
   - 72 x22 * x87 - 100 x22 * x88 + 98 x22 * x89 - 40 x22 * x94
   - 28 x22 * x98 + 92 x22 * x99 + 30 x22 * x101 + 42 x22 * x107
   - 68 x22 * x109 + 98 x22 * x112 - 58 x22 * x115 - 82 x22 * x116
   + 68 x22 * x117 + 8 x22 * x123 - 34 x23 ^2 + 42 x23 * x24 - 38 x23 * x27
   - 30 x23 * x28 + 98 x23 * x31 - 18 x23 * x34 + 44 x23 * x35
   + 26 x23 * x37 - 78 x23 * x42 + 28 x23 * x43 + 56 x23 * x51
   - 42 x23 * x53 - 46 x23 * x56 - 6 x23 * x57 - 88 x23 * x58
   - 46 x23 * x61 + 98 x23 * x70 - 72 x23 * x71 - 50 x23 * x72
   - 72 x23 * x76 - 16 x23 * x81 + 38 x23 * x86 + 12 x23 * x92
   + 94 x23 * x93 + 34 x23 * x98 - 82 x23 * x101 - 30 x23 * x102
   - 52 x23 * x103 - 34 x23 * x104 + 58 x23 * x115 + 22 x24 * x27
   + 14 x24 * x31 - 18 x24 * x34 - 92 x24 * x39 + 76 x24 * x44
   - 52 x24 * x51 + 58 x24 * x54 + 34 x24 * x55 + 98 x24 * x61
   + 66 x24 * x67 + 16 x24 * x69 + 64 x24 * x71 + 30 x24 * x87
   + 22 x24 * x88 - 90 x24 * x90 + 14 x24 * x91 + 4 x24 * x94
   - 32 x24 * x98 + 72 x24 * x101 - 20 x24 * x105 + 64 x24 * x106
   - 58 x24 * x108 + 100 x24 * x112 + 38 x24 * x114 + 48 x24 * x118
   + 20 x24 * x123 + 58 x25 * x31 + 44 x25 * x41 + 64 x25 * x42
   - 48 x25 * x45 + 26 x25 * x48 - 44 x25 * x57 - 54 x25 * x66
   + 62 x25 * x70 + 4 x25 * x71 + 14 x25 * x73 + 68 x25 * x78 + 6 x25 * x87
   - 20 x25 * x101 - 16 x25 * x104 - 20 x25 * x105 + 20 x25 * x111
   - 16 x25 * x112 + 26 x25 * x113 - 64 x25 * x116 - 40 x25 * x120
   + 96 x26 * x30 + 6 x26 * x31 - 42 x26 * x32 + 40 x26 * x39
   - 74 x26 * x40 + 96 x26 * x45 - 56 x26 * x47 + 92 x26 * x56
   - 62 x26 * x58 - 34 x26 * x59 + 74 x26 * x63 + 78 x26 * x66
   - 44 x26 * x71 + 12 x26 * x72 + 20 x26 * x77 - 66 x26 * x82
   - 42 x26 * x87 - 6 x26 * x89 - 58 x26 * x90 + 4 x26 * x92
   - 78 x26 * x101 + 18 x26 * x104 - 28 x26 * x106 + 72 x26 * x114
   - 54 x26 * x116 - 88 x26 * x117 + 10 x26 * x119 - 20 x26 * x120
   - 10 x26 * x123 - 78 x26 * x124 + 20 x27 ^2 - 60 x27 * x30
   + 98 x27 * x33 - 86 x27 * x38 + 18 x27 * x41 - 22 x27 * x43
   + 32 x27 * x45 - 6 x27 * x54 + 60 x27 * x55 - 22 x27 * x61
   + 42 x27 * x62 - 90 x27 * x63 + 52 x27 * x66 - 36 x27 * x69
   + 52 x27 * x75 + 48 x27 * x76 + 76 x27 * x85 + 80 x27 * x92
   - 36 x27 * x103 - 22 x27 * x105 - 42 x27 * x106 + 68 x27 * x110
   + 12 x27 * x118 - 86 x27 * x119 + 52 x27 * x122 - 49 x28 ^2
   + 10 x28 * x31 - 36 x28 * x33 - 16 x28 * x35 - 60 x28 * x41
   - 58 x28 * x45 - 2 x28 * x48 + 94 x28 * x49 + 80 x28 * x50
   + 74 x28 * x62 - 88 x28 * x70 + 64 x28 * x73 + 54 x28 * x75
   - 64 x28 * x84 + 62 x28 * x88 - 18 x28 * x90 + 6 x28 * x93 - 4 x28 * x97
   - 52 x28 * x100 + 44 x28 * x101 + 20 x28 * x102 + 42 x28 * x103
   + 70 x28 * x104 - 50 x28 * x106 - 14 x28 * x108 + 8 x28 * x109
   - 24 x28 * x115 - 22 x28 * x116 - 62 x28 * x120 + 24 x28 * x124
   + 52 x29 * x31 + 100 x29 * x36 - 54 x29 * x42 - 8 x29 * x46
   + 90 x29 * x51 - 70 x29 * x59 - 54 x29 * x65 + 48 x29 * x66
   - 80 x29 * x69 - 66 x29 * x88 - 76 x29 * x90 - 50 x29 * x91
   + 8 x29 * x96 + 46 x29 * x98 - 18 x29 * x99 + 48 x29 * x101
   - 20 x29 * x105 - 14 x29 * x108 - 50 x29 * x111 + 4 x29 * x114
   - 98 x29 * x117 + 88 x29 * x121 - 96 x29 * x124 + 23 x30 ^2
   + 66 x30 * x33 - 60 x30 * x36 - 42 x30 * x40 - 40 x30 * x41
   - 22 x30 * x45 - 48 x30 * x55 + 26 x30 * x58 + 68 x30 * x76
   + 8 x30 * x84 - 30 x30 * x85 + 24 x30 * x89 + 4 x30 * x104
   + 66 x30 * x105 + 34 x30 * x111 - 38 x30 * x116 - 96 x30 * x118
   + 12 x30 * x119 - 26 x30 * x124 + 37 x31 ^2 + 26 x31 * x35
   - 26 x31 * x37 - 74 x31 * x39 + 100 x31 * x41 - 96 x31 * x42
   - 52 x31 * x44 + 78 x31 * x46 - 62 x31 * x60 - 46 x31 * x63
   - 36 x31 * x66 - 18 x31 * x71 - 12 x31 * x76 + 30 x31 * x77
   + 96 x31 * x83 - 78 x31 * x92 - 12 x31 * x93 + 48 x31 * x97
   - 92 x31 * x101 - 42 x31 * x102 + 98 x31 * x108 - 62 x31 * x109
   - 6 x31 * x111 - 66 x31 * x117 - 94 x31 * x118 + 24 x32 * x36
   + 46 x32 * x37 - 34 x32 * x39 - 40 x32 * x44 + 76 x32 * x47
   - 68 x32 * x50 - 92 x32 * x52 - 22 x32 * x63 - 38 x32 * x71
   - 82 x32 * x72 + 40 x32 * x74 + 76 x32 * x77 - 46 x32 * x79
   - 80 x32 * x87 - 90 x32 * x100 - 24 x32 * x102 + 48 x32 * x110
   - 100 x32 * x114 - 44 x33 * x36 + 22 x33 * x39 + 80 x33 * x40
   + 38 x33 * x48 - 84 x33 * x49 - 70 x33 * x52 + 6 x33 * x58 + 2 x33 * x61
   - 84 x33 * x66 - 100 x33 * x75 - 42 x33 * x77 - 100 x33 * x84
   - 12 x33 * x96 + 74 x33 * x100 - 12 x33 * x104 - 36 x33 * x106
   + 32 x33 * x108 - 58 x33 * x110 + 90 x33 * x113 + 86 x33 * x115
   - 12 x33 * x117 + 92 x33 * x119 + 42 x34 * x36 + 66 x34 * x40
   - 32 x34 * x47 + 62 x34 * x54 - 98 x34 * x58 - 2 x34 * x64 - 6 x34 * x74
   + 52 x34 * x76 + 24 x34 * x79 + 72 x34 * x94 - 58 x34 * x95
   + 96 x34 * x98 + 32 x34 * x100 - 8 x34 * x103 + 52 x34 * x105
   + 54 x34 * x107 - 8 x34 * x108 - 35 x35 ^2 + 64 x35 * x43 - 12 x35 * x47
   + 64 x35 * x48 + 54 x35 * x49 - 44 x35 * x56 + 86 x35 * x57
   + 22 x35 * x61 + 12 x35 * x71 + 52 x35 * x78 - 64 x35 * x82
   - 34 x35 * x85 - 14 x35 * x86 + 62 x35 * x87 + 2 x35 * x94
   - 54 x35 * x99 - 32 x35 * x106 - 36 x35 * x107 + 46 x35 * x112
   + 30 x35 * x115 - 48 x35 * x120 + 38 x36 * x43 + 36 x36 * x44
   - 68 x36 * x47 - 90 x36 * x48 + 80 x36 * x50 + 30 x36 * x52
   - 58 x36 * x54 + 28 x36 * x58 - 100 x36 * x61 - 36 x36 * x62
   + 2 x36 * x66 + 14 x36 * x67 - 12 x36 * x72 + 80 x36 * x79
   - 58 x36 * x81 - 90 x36 * x88 - 50 x36 * x89 - 6 x36 * x95
   - 16 x36 * x97 + 54 x36 * x99 - 98 x36 * x110 - 28 x36 * x113
   + 96 x36 * x118 - 26 x36 * x121 - 60 x36 * x122 + 38 x37 * x47
   + 88 x37 * x48 + 46 x37 * x53 + 54 x37 * x54 - 4 x37 * x61 - 6 x37 * x64
   - 94 x37 * x67 + 74 x37 * x70 + 6 x37 * x72 - 64 x37 * x76
   + 36 x37 * x79 - 74 x37 * x86 + 2 x37 * x87 - 14 x37 * x94
   + 40 x37 * x97 + 84 x37 * x98 + 90 x37 * x99 + 64 x37 * x105
   - 12 x37 * x106 + 2 x37 * x109 - 28 x37 * x114 - 24 x37 * x116
   + 46 x37 * x119 - 12 x37 * x121 - 66 x38 * x44 - 84 x38 * x49
   + 8 x38 * x53 + 100 x38 * x54 + 50 x38 * x60 - 98 x38 * x66
   - 70 x38 * x71 + 8 x38 * x74 - 12 x38 * x81 + 50 x38 * x83
   + 42 x38 * x87 - 70 x38 * x89 + 88 x38 * x91 + 36 x38 * x92
   + 48 x38 * x100 - 58 x38 * x106 - 50 x38 * x110 + 76 x38 * x111
   - 82 x38 * x121 + 34 x38 * x123 + 38 x39 ^2 - 64 x39 * x43
   + 70 x39 * x44 - 56 x39 * x52 + 16 x39 * x63 - 38 x39 * x68
   + 60 x39 * x75 - 86 x39 * x85 + 46 x39 * x86 - 70 x39 * x91
   - 98 x39 * x92 - 96 x39 * x101 - 86 x39 * x102 - 64 x39 * x103
   - 76 x39 * x106 - 76 x39 * x111 - 78 x39 * x115 - 62 x39 * x118
   + 16 x39 * x120 + 6 x40 * x42 + 26 x40 * x47 - 60 x40 * x50
   + 46 x40 * x51 + 44 x40 * x52 + 84 x40 * x53 + 26 x40 * x56
   + 26 x40 * x57 - 36 x40 * x59 + 72 x40 * x61 + 32 x40 * x62
   + 74 x40 * x63 - 2 x40 * x65 - 48 x40 * x66 + 92 x40 * x74
   + 96 x40 * x80 - 68 x40 * x83 - 44 x40 * x84 - 48 x40 * x89
   + 10 x40 * x95 - 48 x40 * x99 + 28 x40 * x105 + 18 x40 * x111
   - 44 x40 * x114 - 94 x40 * x121 + 9 x41 ^2 + 4 x41 * x47 - 26 x41 * x49
   - 12 x41 * x54 + 94 x41 * x59 - 16 x41 * x62 - 80 x41 * x63
   - 48 x41 * x64 + 36 x41 * x74 + 16 x41 * x79 + 32 x41 * x81
   + 4 x41 * x82 + 12 x41 * x90 - 56 x41 * x93 - 44 x41 * x94
   + 42 x41 * x99 - 76 x41 * x102 - 18 x41 * x104 + 14 x41 * x106
   + 34 x41 * x108 - 52 x41 * x109 + 52 x41 * x114 + 62 x41 * x116
   + 8 x41 * x118 + 100 x41 * x120 + 54 x42 * x53 + 82 x42 * x56
   - 42 x42 * x73 - 10 x42 * x76 - 78 x42 * x81 + 86 x42 * x90
   + 16 x42 * x91 + 78 x42 * x99 + 22 x42 * x101 - 48 x42 * x106
   - 4 x42 * x111 - 60 x42 * x112 - 66 x42 * x113 - 30 x42 * x116
   + 14 x42 * x119 - 30 x42 * x122 + 10 x42 * x123 - 28 x43 ^2
   + 80 x43 * x49 + 12 x43 * x53 + 10 x43 * x60 - 2 x43 * x64
   + 64 x43 * x65 + 16 x43 * x66 - 36 x43 * x73 - 48 x43 * x74
   + 4 x43 * x76 + 40 x43 * x86 + 6 x43 * x87 + 50 x43 * x89 - 30 x43 * x92
   + 42 x43 * x95 - 84 x43 * x100 + 36 x43 * x102 - 34 x43 * x103
   - 86 x43 * x104 + 98 x43 * x116 + 14 x43 * x118 + 86 x43 * x120
   - 30 x43 * x121 - 36 x43 * x122 - 50 x44 * x47 + 88 x44 * x52
   + 16 x44 * x53 + 98 x44 * x60 + 6 x44 * x67 - 50 x44 * x68 + 6 x44 * x70
   - 44 x44 * x83 + 62 x44 * x87 + 76 x44 * x88 - 24 x44 * x89
   - 8 x44 * x99 - 48 x44 * x105 + 40 x44 * x109 - 28 x44 * x118
   - 92 x45 * x47 - 98 x45 * x48 - 56 x45 * x51 - 74 x45 * x55
   - 4 x45 * x57 - 88 x45 * x62 - 78 x45 * x63 + 32 x45 * x64
   + 78 x45 * x65 + 96 x45 * x66 - 38 x45 * x68 + 52 x45 * x70
   - 20 x45 * x75 - 80 x45 * x83 - 64 x45 * x91 + 92 x45 * x95
   + 88 x45 * x97 - 16 x45 * x99 + 50 x45 * x100 + 32 x45 * x101
   - 46 x45 * x102 - 84 x45 * x106 - 28 x45 * x107 - 24 x45 * x108
   - 82 x45 * x110 - 68 x45 * x119 + 80 x45 * x122 - 2 x46 * x47
   + 32 x46 * x55 + 18 x46 * x61 + 46 x46 * x66 - 80 x46 * x67
   + 26 x46 * x71 + 6 x46 * x72 + 46 x46 * x74 - 28 x46 * x77
   + 84 x46 * x79 + 72 x46 * x81 - 46 x46 * x84 - 54 x46 * x85
   + 42 x46 * x87 + 68 x46 * x88 + 16 x46 * x91 + 86 x46 * x94
   + 64 x46 * x95 - 96 x46 * x98 - 58 x46 * x104 - 52 x46 * x108
   + 86 x46 * x115 + 66 x46 * x120 - 52 x46 * x124 - 22 x47 ^2
   + 36 x47 * x48 - 32 x47 * x55 - 66 x47 * x56 - 22 x47 * x58
   + 40 x47 * x60 + 76 x47 * x64 + 98 x47 * x70 - 16 x47 * x76
   - 82 x47 * x80 + 98 x47 * x82 + 8 x47 * x83 - 90 x47 * x84
   - 24 x47 * x90 - 24 x47 * x91 + 66 x47 * x93 + 2 x47 * x95
   - 82 x47 * x98 + 44 x47 * x100 + 26 x47 * x103 + 92 x47 * x106
   + 34 x47 * x109 - 68 x47 * x110 + 56 x47 * x116 - 34 x47 * x117
   + 82 x47 * x120 - 80 x47 * x122 - 14 x48 * x50 + 56 x48 * x51
   - 78 x48 * x54 - 54 x48 * x55 + 30 x48 * x57 - 8 x48 * x58
   - 54 x48 * x62 + 50 x48 * x63 + 28 x48 * x64 + 8 x48 * x80
   - 18 x48 * x91 + 16 x48 * x92 - 52 x48 * x109 + 42 x48 * x122
   + 70 x49 * x50 - 90 x49 * x54 - 52 x49 * x65 - 54 x49 * x66
   - 68 x49 * x69 - 94 x49 * x70 - 24 x49 * x73 - 56 x49 * x75
   + 54 x49 * x78 + 68 x49 * x80 - 84 x49 * x81 - 52 x49 * x88
   - 26 x49 * x89 + 68 x49 * x96 + 88 x49 * x108 + 74 x49 * x109
   + 52 x49 * x111 - 28 x49 * x116 + 8 x49 * x119 + 10 x49 * x124
   - 62 x50 * x61 - 98 x50 * x63 + 88 x50 * x66 - 86 x50 * x75
   + 18 x50 * x78 + 50 x50 * x80 + 2 x50 * x87 + 16 x50 * x95
   - 84 x50 * x99 - 78 x50 * x106 + 42 x50 * x108 + 40 x50 * x111
   - 86 x50 * x113 + 4 x51 * x55 + 12 x51 * x58 + 10 x51 * x62
   - 8 x51 * x63 - 18 x51 * x67 - 28 x51 * x72 - 78 x51 * x74
   + 30 x51 * x87 - 16 x51 * x95 - 86 x51 * x99 + 52 x51 * x109
   - 46 x52 * x59 - 48 x52 * x61 - 38 x52 * x64 - 14 x52 * x65
   - 100 x52 * x67 + 8 x52 * x68 + 88 x52 * x76 - 94 x52 * x81
   - 92 x52 * x84 - 4 x52 * x85 - 26 x52 * x88 + 36 x52 * x90
   - 56 x52 * x93 + 24 x52 * x94 - 88 x52 * x100 + 60 x52 * x105
   - 16 x52 * x108 - 96 x52 * x113 - 20 x52 * x116 + 18 x52 * x117
   - 16 x53 * x54 - 64 x53 * x56 - 66 x53 * x66 + 30 x53 * x71
   + 68 x53 * x72 + 32 x53 * x74 + 6 x53 * x79 - 92 x53 * x81
   - 58 x53 * x84 - 10 x53 * x86 + 62 x53 * x88 - 48 x53 * x93
   - 4 x53 * x96 - 72 x53 * x101 + 8 x53 * x102 - 86 x53 * x105
   - 6 x53 * x107 + 56 x53 * x113 + 30 x53 * x114 + 2 x53 * x115
   + 76 x53 * x119 - 86 x53 * x124 - 94 x54 * x61 + 74 x54 * x77
   + 16 x54 * x81 - 6 x54 * x82 - 44 x54 * x85 - 34 x54 * x86
   + 74 x54 * x87 - 96 x54 * x97 - 76 x54 * x101 + 54 x54 * x103
   + 48 x54 * x107 - 56 x54 * x109 - 6 x54 * x115 + 26 x54 * x117
   - 94 x54 * x118 - 38 x54 * x122 + 8 x55 * x56 - 96 x55 * x65
   + 44 x55 * x70 - 26 x55 * x73 + 70 x55 * x75 + 50 x55 * x77
   + 98 x55 * x85 + 68 x55 * x89 - 80 x55 * x91 + 26 x55 * x95
   + 12 x55 * x100 - 16 x55 * x101 + 90 x55 * x105 - 22 x55 * x106
   - 20 x55 * x108 - 50 x55 * x109 + 48 x55 * x111 + 36 x55 * x114
   + 82 x55 * x115 + 50 x55 * x119 + 2 x55 * x121 + 62 x55 * x124
   + 52 x56 * x59 - 12 x56 * x68 - 96 x56 * x74 + 44 x56 * x75
   - 80 x56 * x77 - 12 x56 * x84 + 28 x56 * x91 + 100 x56 * x96
   + 92 x56 * x97 + 12 x56 * x100 - 52 x56 * x104 + 12 x56 * x106
   + 54 x56 * x112 + 100 x56 * x114 - 40 x56 * x117 + 90 x56 * x118
   + 100 x57 * x58 + 82 x57 * x64 - 62 x57 * x66 + 6 x57 * x68
   + 88 x57 * x72 - 28 x57 * x78 + 74 x57 * x81 + 68 x57 * x82
   - 86 x57 * x83 - 34 x57 * x87 + 38 x57 * x89 + 28 x57 * x92
   + 16 x57 * x94 - 22 x57 * x96 + 32 x57 * x102 + 12 x57 * x104
   + 68 x57 * x106 + 54 x57 * x108 - 68 x57 * x112 - 56 x57 * x115
   + 45 x58 ^2 + 82 x58 * x75 + 14 x58 * x78 - 72 x58 * x80 + 60 x58 * x89
   + 38 x58 * x90 - 80 x58 * x92 - 16 x58 * x93 + 48 x58 * x98
   + 24 x58 * x99 + 14 x58 * x100 - 28 x58 * x102 - 30 x58 * x103
   + 14 x58 * x107 - 26 x58 * x108 - 48 x58 * x109 + 58 x58 * x122
   - 28 x59 * x61 - 92 x59 * x63 - 62 x59 * x68 - 78 x59 * x69
   + 46 x59 * x83 - 30 x59 * x85 + 18 x59 * x89 + 28 x59 * x95
   + 70 x59 * x103 + 60 x59 * x108 - 90 x59 * x110 - 64 x59 * x111
   + 70 x59 * x114 + 96 x59 * x115 - 38 x60 * x76 - 48 x60 * x79
   - 38 x60 * x80 - 80 x60 * x81 + 54 x60 * x92 - 28 x60 * x94
   + 86 x60 * x96 + 48 x60 * x107 + 4 x60 * x109 + 14 x60 * x116
   - 80 x60 * x117 + 10 x60 * x119 - 16 x60 * x123 + 36 x61 ^2
   - 34 x61 * x62 - 56 x61 * x70 + 86 x61 * x76 - 54 x61 * x79
   - 82 x61 * x80 + 78 x61 * x82 + 18 x61 * x84 + 10 x61 * x96
   + 56 x61 * x110 + 84 x61 * x121 - 48 x62 * x65 + 52 x62 * x66
   - 24 x62 * x70 - 64 x62 * x73 + 100 x62 * x75 + 50 x62 * x78
   - 28 x62 * x82 + 36 x62 * x83 + 80 x62 * x84 + 84 x62 * x88
   + 34 x62 * x89 - 38 x62 * x98 + 8 x62 * x102 + 54 x62 * x109
   - 74 x62 * x114 + 76 x62 * x123 + 35 x63 ^2 - 44 x63 * x67 + 2 x63 * x70
   + 38 x63 * x73 + 52 x63 * x76 - 70 x63 * x79 - 10 x63 * x87
   - 68 x63 * x89 + 74 x63 * x90 + 88 x63 * x94 + 50 x63 * x98
   + 94 x63 * x103 + 2 x63 * x105 + 2 x63 * x107 - 32 x63 * x109
   + 32 x63 * x112 + 22 x63 * x114 - 20 x63 * x115 + 62 x63 * x122
   + 22 x64 * x73 + 96 x64 * x74 - 26 x64 * x75 - 96 x64 * x78
   + 28 x64 * x81 - 100 x64 * x83 + 10 x64 * x84 - 6 x64 * x86
   + 48 x64 * x87 - 62 x64 * x96 + 38 x64 * x98 - 18 x64 * x100
   - 76 x64 * x106 + 56 x64 * x107 - 42 x64 * x110 - 84 x64 * x115
   + 100 x64 * x120 + 28 x64 * x122 + 40 x64 * x124 - 16 x65 * x69
   - 32 x65 * x70 + 64 x65 * x73 - 54 x65 * x74 - 76 x65 * x84
   + 26 x65 * x97 + 40 x65 * x113 + 4 x65 * x117 - 56 x65 * x118
   - 46 x65 * x120 - 42 x66 * x67 + 6 x66 * x70 + 62 x66 * x86
   + 70 x66 * x87 + 70 x66 * x89 + 36 x66 * x92 + 76 x66 * x96
   + 40 x66 * x98 + 34 x66 * x99 - 66 x66 * x100 - 10 x66 * x101
   + 68 x66 * x102 + 92 x66 * x104 - 34 x66 * x106 - 42 x66 * x110
   - 72 x66 * x111 + 24 x66 * x113 - 82 x66 * x114 - 38 x66 * x116
   + 54 x66 * x118 - 48 x66 * x120 - 7 x67 ^2 - 22 x67 * x69 + 76 x67 * x71
   + 38 x67 * x72 + 60 x67 * x75 - 26 x67 * x82 + 30 x67 * x85
   + 8 x67 * x89 + 32 x67 * x94 - 60 x67 * x99 - 2 x67 * x101
   + 70 x67 * x103 + 40 x67 * x107 + 78 x67 * x111 - 64 x67 * x119
   + 92 x67 * x123 + 36 x68 ^2 - 40 x68 * x73 + 96 x68 * x89
   - 16 x68 * x104 - 20 x68 * x108 + 60 x68 * x112 + 34 x68 * x115
   + 10 x68 * x116 - 10 x68 * x117 + 32 x68 * x119 - 48 x68 * x122
   + 64 x69 * x71 - 54 x69 * x75 - 74 x69 * x76 + 40 x69 * x79
   - 52 x69 * x82 + 48 x69 * x85 - 24 x69 * x88 + 78 x69 * x90
   + 44 x69 * x94 + 76 x69 * x101 + 38 x69 * x102 - 46 x69 * x110
   - 96 x69 * x112 + 22 x69 * x120 - 32 x69 * x123 + 2 x69 * x124
   + 12 x70 ^2 - 94 x70 * x71 - 54 x70 * x72 + 76 x70 * x74 - 60 x70 * x76
   + 16 x70 * x80 - 56 x70 * x81 - 64 x70 * x87 + 88 x70 * x88
   + 8 x70 * x97 - 56 x70 * x98 - 4 x70 * x108 - 48 x70 * x119
   + 62 x71 * x82 + 24 x71 * x93 - 16 x71 * x94 + 36 x71 * x105
   + 14 x71 * x113 - 76 x71 * x114 + 32 x71 * x115 + 98 x71 * x116
   - 66 x71 * x119 - 66 x71 * x122 + 76 x72 * x74 + 38 x72 * x75
   + 50 x72 * x78 + 42 x72 * x79 + 10 x72 * x83 + 18 x72 * x85
   + 84 x72 * x90 + 14 x72 * x92 - 100 x72 * x95 + 26 x72 * x96
   - 54 x72 * x98 - 80 x72 * x102 + 88 x72 * x103 - 98 x72 * x105
   - 16 x72 * x113 + 32 x72 * x115 - 82 x72 * x119 - 38 x72 * x120
   + 62 x72 * x121 - 6 x72 * x122 + 26 x73 ^2 + 52 x73 * x78 - 90 x73 * x79
   - 78 x73 * x83 + 48 x73 * x84 - 58 x73 * x93 - 96 x73 * x100
   - 2 x73 * x102 - 18 x73 * x103 + 100 x73 * x107 - 2 x73 * x108
   + 62 x73 * x110 + 88 x73 * x111 - 8 x73 * x120 - 58 x73 * x121
   - 28 x74 * x76 - 64 x74 * x83 - 64 x74 * x89 + 4 x74 * x95
   - 10 x74 * x96 + 46 x74 * x98 - 12 x74 * x100 + 34 x74 * x104
   + 32 x74 * x109 + 32 x74 * x112 - 76 x74 * x113 - 80 x74 * x116
   - 26 x75 ^2 - 92 x75 * x79 - 42 x75 * x80 + 46 x75 * x81 - 94 x75 * x83
   - 16 x75 * x91 - 4 x75 * x95 + 38 x75 * x96 - 94 x75 * x97
   - 92 x75 * x99 - 88 x75 * x102 - 84 x75 * x104 - 34 x75 * x106
   - 52 x75 * x108 - 66 x75 * x111 - 38 x75 * x116 + 6 x75 * x117
   - 10 x76 * x78 - 6 x76 * x79 + 80 x76 * x82 - 74 x76 * x84
   + 60 x76 * x86 - 44 x76 * x89 + 84 x76 * x91 - 10 x76 * x96
   - 6 x76 * x99 - 56 x76 * x100 + 94 x76 * x106 - 68 x76 * x107
   - 46 x76 * x112 - 12 x76 * x118 - 26 x77 * x80 + 22 x77 * x91
   + 62 x77 * x96 + 18 x77 * x97 + 68 x77 * x100 - 72 x77 * x104
   + 36 x77 * x105 - 38 x77 * x106 - 44 x77 * x115 - 47 x78 ^2
   + 76 x78 * x80 + 66 x78 * x84 + 8 x78 * x87 + 38 x78 * x89
   - 40 x78 * x90 - 38 x78 * x91 - 54 x78 * x92 - 88 x78 * x95
   - 34 x78 * x109 - 46 x78 * x117 - 10 x78 * x122 - 56 x78 * x123
   + 30 x79 ^2 - 92 x79 * x81 - 76 x79 * x82 - 92 x79 * x83 + 12 x79 * x87
   + 96 x79 * x90 - 34 x79 * x92 - 44 x79 * x98 - 68 x79 * x99
   + 70 x79 * x115 - 6 x79 * x121 - 2 x79 * x122 - 64 x80 * x87
   + 70 x80 * x94 + 2 x80 * x98 + 50 x80 * x101 - 16 x80 * x107
   - 96 x80 * x112 - 62 x80 * x116 - 72 x80 * x122 - 72 x81 * x82
   + 72 x81 * x88 + 100 x81 * x93 + 28 x81 * x97 - 78 x81 * x102
   + 74 x81 * x104 - 94 x81 * x105 + 26 x81 * x110 - 70 x81 * x115
   + 96 x81 * x117 - 68 x82 * x83 + 84 x82 * x86 - 26 x82 * x87
   + 78 x82 * x89 + 24 x82 * x95 + 30 x82 * x97 - 80 x82 * x112
   - 4 x82 * x115 + 80 x82 * x118 - 62 x82 * x119 - 92 x82 * x121
   - 64 x83 * x98 + 98 x83 * x99 - 38 x83 * x104 + 94 x83 * x107
   + 92 x83 * x114 + 100 x83 * x124 - 28 x84 ^2 - 28 x84 * x87
   - 30 x84 * x97 + 56 x84 * x99 - 94 x84 * x100 + 38 x84 * x111
   + 32 x84 * x123 - 14 x85 ^2 + 76 x85 * x87 - 50 x85 * x90 + 40 x85 * x92
   + 98 x85 * x94 + 48 x85 * x98 + 26 x85 * x108 - 28 x85 * x116
   - 84 x85 * x117 + 36 x85 * x122 + 48 x85 * x123 - 50 x86 * x87
   + 62 x86 * x88 + 64 x86 * x91 - 80 x86 * x93 - 24 x86 * x101
   - 70 x86 * x103 - 54 x86 * x114 + 12 x86 * x117 - 32 x86 * x119
   - 14 x86 * x124 + 72 x87 * x90 - 58 x87 * x93 - 74 x87 * x94
   + 32 x87 * x95 + 24 x87 * x97 + 84 x87 * x98 + 78 x87 * x102
   - 26 x87 * x104 + 48 x87 * x109 + 58 x87 * x115 - 64 x87 * x116
   - 36 x87 * x119 + 100 x87 * x121 + 48 x87 * x122 + 2 x88 * x93
   + 22 x88 * x99 + 24 x88 * x118 + 68 x88 * x120 - 6 x89 * x90
   - 50 x89 * x92 - 12 x89 * x93 - 50 x89 * x94 + 44 x89 * x99
   - 88 x89 * x103 - 66 x89 * x115 - 32 x89 * x116 + 54 x89 * x117
   - 44 x89 * x119 - 34 x89 * x121 - 2 x89 * x122 - 48 x89 * x124
   + 12 x90 * x93 + 64 x90 * x98 + 58 x90 * x100 + 68 x90 * x103
   - 44 x90 * x105 + 52 x90 * x107 - 8 x90 * x108 + 18 x90 * x114
   + 18 x90 * x117 + 42 x90 * x119 + 2 x90 * x121 + 26 x90 * x122
   + 70 x91 * x95 + 88 x91 * x98 - 8 x91 * x99 - 60 x91 * x100
   - 94 x91 * x101 - 22 x91 * x107 + 6 x91 * x110 + 82 x91 * x113
   - 44 x91 * x114 - 94 x91 * x116 - 12 x91 * x120 - 14 x92 ^2
   + 22 x92 * x97 - 82 x92 * x99 - 56 x92 * x100 + 78 x92 * x108
   + 28 x92 * x118 - 92 x92 * x120 + 20 x92 * x123 + 54 x93 * x94
   - 18 x93 * x96 - 22 x93 * x99 + 46 x93 * x100 + 42 x93 * x101
   + 34 x93 * x107 - 4 x93 * x108 + 72 x93 * x116 - 36 x93 * x124
   + 66 x94 * x97 + 34 x94 * x100 + 76 x94 * x103 + 44 x94 * x109
   + 6 x94 * x113 - 30 x94 * x115 - 34 x94 * x117 - 54 x94 * x119
   + 44 x95 * x96 - 24 x95 * x97 - 98 x95 * x99 - 48 x95 * x107
   + 20 x95 * x108 + 90 x95 * x111 - 24 x95 * x113 - 30 x95 * x118
   + 38 x95 * x120 - 52 x95 * x121 + 88 x96 * x99 - 82 x96 * x107
   - 20 x96 * x124 + 47 x97 ^2 - 56 x97 * x98 - 28 x97 * x102
   + 2 x97 * x108 + 32 x97 * x109 - 52 x97 * x111 - 46 x98 * x116
   + 4 x98 * x119 - 78 x98 * x123 - 15 x99 ^2 - 28 x99 * x101
   - 62 x99 * x103 - 80 x99 * x106 + 56 x99 * x112 + 84 x99 * x115
   + 88 x99 * x118 + 2 x99 * x122 + 22 x99 * x124 - 38 x100 * x101
   + 8 x100 * x103 - 10 x100 * x109 + 34 x100 * x111 + 100 x100 * x112
   + 14 x100 * x118 + 58 x100 * x120 - 86 x101 * x103 + 22 x101 * x104
   + 96 x101 * x107 - 40 x101 * x108 - 54 x101 * x110 + 60 x101 * x111
   - 58 x101 * x119 + 58 x101 * x120 + 88 x101 * x122 - 50 x101 * x123
   - 10 x102 * x106 - 20 x102 * x109 - 16 x102 * x112 + 4 x102 * x114
   - 20 x102 * x120 + 86 x102 * x121 + 32 x102 * x122 - 98 x102 * x123
   + 4 x103 * x106 - 90 x103 * x112 - 86 x103 * x113 + 62 x103 * x117
   - 68 x103 * x120 - 62 x103 * x121 + 60 x103 * x122 + 14 x104 ^2
   + 42 x104 * x109 + 46 x104 * x110 - 82 x104 * x111 - 4 x104 * x116
   + 82 x104 * x118 - 78 x105 * x116 - 41 x106 ^2 - 68 x106 * x108
   + 12 x106 * x113 - 76 x106 * x115 - 82 x106 * x116 + 88 x106 * x123
   + 10 x107 * x108 - 80 x107 * x109 - 72 x107 * x114 + 2 x107 * x118
   + 16 x107 * x124 + 42 x108 * x112 - 28 x108 * x117 - 12 x108 * x119
   + 2 x109 * x110 + 56 x109 * x112 - 44 x109 * x118 + 26 x109 * x121
   - 12 x109 * x123 + 62 x110 * x114 + 44 x110 * x115 - 94 x110 * x117
   - 30 x110 * x118 - 10 x110 * x120 - 62 x110 * x121 + 52 x111 * x115
   - 38 x111 * x116 - 4 x111 * x122 + 62 x113 * x114 + 74 x113 * x117
   + 2 x114 * x116 - 56 x114 * x118 + 72 x115 * x121 + 18 x116 ^2
   + 20 x116 * x118 + 74 x116 * x122 + 2 x117 ^2 + 40 x117 * x121
   + 48 x117 * x122 + 44 x118 * x120 - 28 x118 * x121 + 30 x118 * x123
   - 40 x119 * x120 + 8 x120 * x123 - 3 x121 ^2 ] / 2 
Subject To
Bounds
 x0 <= 1
 x1 <= 1
 x2 <= 1
 x3 <= 1
 x4 <= 1
 x5 <= 1
 x6 <= 1
 x7 <= 1
 x8 <= 1
 x9 <= 1
 x10 <= 1
 x11 <= 1
 x12 <= 1
 x13 <= 1
 x14 <= 1
 x15 <= 1
 x16 <= 1
 x17 <= 1
 x18 <= 1
 x19 <= 1
 x20 <= 1
 x21 <= 1
 x22 <= 1
 x23 <= 1
 x24 <= 1
 x25 <= 1
 x26 <= 1
 x27 <= 1
 x28 <= 1
 x29 <= 1
 x30 <= 1
 x31 <= 1
 x32 <= 1
 x33 <= 1
 x34 <= 1
 x35 <= 1
 x36 <= 1
 x37 <= 1
 x38 <= 1
 x39 <= 1
 x40 <= 1
 x41 <= 1
 x42 <= 1
 x43 <= 1
 x44 <= 1
 x45 <= 1
 x46 <= 1
 x47 <= 1
 x48 <= 1
 x49 <= 1
 x50 <= 1
 x51 <= 1
 x52 <= 1
 x53 <= 1
 x54 <= 1
 x55 <= 1
 x56 <= 1
 x57 <= 1
 x58 <= 1
 x59 <= 1
 x60 <= 1
 x61 <= 1
 x62 <= 1
 x63 <= 1
 x64 <= 1
 x65 <= 1
 x66 <= 1
 x67 <= 1
 x68 <= 1
 x69 <= 1
 x70 <= 1
 x71 <= 1
 x72 <= 1
 x73 <= 1
 x74 <= 1
 x75 <= 1
 x76 <= 1
 x77 <= 1
 x78 <= 1
 x79 <= 1
 x80 <= 1
 x81 <= 1
 x82 <= 1
 x83 <= 1
 x84 <= 1
 x85 <= 1
 x86 <= 1
 x87 <= 1
 x88 <= 1
 x89 <= 1
 x90 <= 1
 x91 <= 1
 x92 <= 1
 x93 <= 1
 x94 <= 1
 x95 <= 1
 x96 <= 1
 x97 <= 1
 x98 <= 1
 x99 <= 1
 x100 <= 1
 x101 <= 1
 x102 <= 1
 x103 <= 1
 x104 <= 1
 x105 <= 1
 x106 <= 1
 x107 <= 1
 x108 <= 1
 x109 <= 1
 x110 <= 1
 x111 <= 1
 x112 <= 1
 x113 <= 1
 x114 <= 1
 x115 <= 1
 x116 <= 1
 x117 <= 1
 x118 <= 1
 x119 <= 1
 x120 <= 1
 x121 <= 1
 x122 <= 1
 x123 <= 1
 x124 <= 1
End
